97
raw_data/rcpsp/CV.xlsx cv97
Time limit set to 60 seconds
Running CP solver
/home/omastto1/General-Optimization-Solver/src/solvers/rcpsp.py:31(stream:51:6): Warning: Cumulative expression 'pulse': height is zero, expression is zero everywhere.
                                                                                            VarCumulAtom_102 = pulse("0", 0)
/home/omastto1/General-Optimization-Solver/src/solvers/rcpsp.py:31(stream:51:482): Warning: Cumulative expression 'pulse': height is zero, expression is zero everywhere.
                                                                                              VarCumulAtom_132 = pulse("30", 0)
/home/omastto1/General-Optimization-Solver/src/solvers/rcpsp.py:31(stream:52:6): Warning: Cumulative expression 'pulse': height is zero, expression is zero everywhere.
                                                                                            VarCumulAtom_136 = pulse("0", 0)
/home/omastto1/General-Optimization-Solver/src/solvers/rcpsp.py:31(stream:52:479): Warning: Cumulative expression 'pulse': height is zero, expression is zero everywhere.
                                                                                              VarCumulAtom_166 = pulse("30", 0)
/home/omastto1/General-Optimization-Solver/src/solvers/rcpsp.py:31(stream:53:6): Warning: Cumulative expression 'pulse': height is zero, expression is zero everywhere.
                                                                                            VarCumulAtom_170 = pulse("0", 0)
/home/omastto1/General-Optimization-Solver/src/solvers/rcpsp.py:31(stream:53:480): Warning: Cumulative expression 'pulse': height is zero, expression is zero everywhere.
                                                                                              VarCumulAtom_200 = pulse("30", 0)
 ! --------------------------------------------------- CP Optimizer 20.1.0.0 --
 ! Minimization problem - 32 variables, 76 constraints
 ! TimeLimit            = 60
 ! Workers              = 14
 ! LogVerbosity         = Terse
 ! Initial process time : 0.01s (0.01s extraction + 0.00s propagation)
 !  . Log search space  : 173.5 (before), 173.5 (after)
 !  . Memory usage      : 616.8 kB (before), 616.8 kB (after)
 ! Using parallel search with 14 workers.
 ! ----------------------------------------------------------------------------
 !          Best Branches  Non-fixed    W       Branch decision
                        0         32                 -
 + New bound is 62
 ! Using iterative diving.
 ! Using temporal relaxation.
 *            80       80  1.02s        1      (gap is 22.50%)
 *            75      144  1.02s        1      (gap is 17.33%)
 *            72      208  1.02s        1      (gap is 13.89%)
 *            71      409  1.02s        1      (gap is 12.68%)
 *            69      628  1.02s        1      (gap is 10.14%)
 ! Using failure-directed search.
 *            68     3455  1.02s        1      (gap is 8.82%)
 *            67     5392  1.02s        2      (gap is 7.46%)
 *            66     6598  1.02s        3      (gap is 6.06%)
 *            64     7382  1.02s        3      (gap is 3.12%)
 *            63     7201  1.02s       10      (gap is 1.59%)
 *            62     7855  1.02s       10      (gap is 0.00%)
 ! ----------------------------------------------------------------------------
 ! Search completed, 11 solutions found.
 ! Best objective         : 62 (optimal - effective tol. is 0)
 ! Best bound             : 62
 ! ----------------------------------------------------------------------------
 ! Number of branches     : 284549
 ! Number of fails        : 90872
 ! Total memory usage     : 7.7 MB (7.6 MB CP Optimizer + 0.1 MB Concert)
 ! Time spent in solve    : 1.93s (1.92s engine + 0.01s extraction)
 ! Search speed (br. / s) : 148202.6
 ! ----------------------------------------------------------------------------
(62,)
(0,)
(62,)
Objective value: 62
Solution is optimal.
Optimal solution found
